NAME: tsp30_6
COMMENT: 30-tsp problem (Padberg/Rinaldi)
TYPE: TSP
DIMENSION: 30
EDGE_WEIGHT_TYPE : EUC_2D
NODE_COORD_SECTION
1 11 30
2 8 11
3 15 17
4 29 20
5 17 30
6 7 13
7 8 33
8 18 18
9 16 12
10 28 24
11 16 21
12 28 18
13 25 22
14 13 4
15 39 24
16 34 27
17 16 38
18 12 31
19 9 26
20 20 0
21 17 32
22 35 1
23 14 6
24 36 2
25 36 21
26 20 30
27 20 1
28 12 2
29 6 18
30 32 13
